(declare-fun _substvar_2673_ () Bool)
(declare-fun _substvar_4177_ () Bool)
(declare-fun _substvar_4583_ () (Array (Array Bool (Array (Array (Array Int (Array Real Real)) (Array Real (Array Real Real))) (Array (Array (Array (Array (Array (Array Real Real) Real) Real) Bool) (Array (Array (Array (Array (Array Real Real) Int) (Array (Array (Array (Array Real Real) Int) (Array (Array (Array (Array Real (Array (Array Real Real) Real)) (Array Real Real)) (Array Int (Array Real (Array (Array Real Real) Real)))) (Array (Array Real Real) Int))) Bool)) (Array (Array (Array (Array Real Real) Real) Real) Bool)) (Array (Array Real Real) (Array (Array (Array Real (Array (Array Real Real) Real)) (Array Real (Array (Array Real Real) Real))) (Array Int (Array Real (Array (Array Real Real) Real))))))) (Array (Array (Array Real (Array (Array Real Real) Real)) (Array Real (Array Real Real))) (Array (Array (Array (Array Real (Array (Array Real Real) Real)) (Array Real Real)) (Array Int (Array Real (Array (Array Real Real) Real)))) (Array (Array Real Real) Int)))))) (Array (Array (Array (Array Real Real) Int) (Array (Array (Array (Array Real (Array (Array Real Real) Real)) (Array Real Real)) (Array Int (Array Real (Array (Array Real Real) Real)))) (Array (Array Real Real) Int))) Bool)))
(declare-const arr-5294925699976714731_7151619858135260131-0 (Array (Array Bool (Array (Array (Array Int (Array Real Real)) (Array Real (Array Real Real))) (Array (Array (Array (Array (Array (Array Real Real) Real) Real) Bool) (Array (Array (Array (Array (Array Real Real) Int) (Array (Array (Array (Array Real Real) Int) (Array (Array (Array (Array Real (Array (Array Real Real) Real)) (Array Real Real)) (Array Int (Array Real (Array (Array Real Real) Real)))) (Array (Array Real Real) Int))) Bool)) (Array (Array (Array (Array Real Real) Real) Real) Bool)) (Array (Array Real Real) (Array (Array (Array Real (Array (Array Real Real) Real)) (Array Real (Array (Array Real Real) Real))) (Array Int (Array Real (Array (Array Real Real) Real))))))) (Array (Array (Array Real (Array (Array Real Real) Real)) (Array Real (Array Real Real))) (Array (Array (Array (Array Real (Array (Array Real Real) Real)) (Array Real Real)) (Array Int (Array Real (Array (Array Real Real) Real)))) (Array (Array Real Real) Int)))))) (Array (Array (Array (Array Real Real) Int) (Array (Array (Array (Array Real (Array (Array Real Real) Real)) (Array Real Real)) (Array Int (Array Real (Array (Array Real Real) Real)))) (Array (Array Real Real) Int))) Bool)))
(assert (and _substvar_2673_ (or _substvar_4177_ (= arr-5294925699976714731_7151619858135260131-0 _substvar_4583_ arr-5294925699976714731_7151619858135260131-0 arr-5294925699976714731_7151619858135260131-0))))
(check-sat)
